      10
 i =       24, E =       -26.4201987406
  C         0.0006376265        1.8100583969        0.2829398204
  C         0.0010054678       -1.8093639940       -0.2814222899
  C        -0.0010636594        0.6344968800       -0.3364753539
  C         0.0020474623       -0.6345177444        0.3395167544
  H         0.0036953964        1.8760912420        1.3580960007
  H        -0.0012454755        2.7367937348       -0.2623791424
  H        -0.0027980826       -1.8744564948       -1.3566372741
  H         0.0049005531       -2.7366466216        0.2629608307
  H        -0.0055500167        0.6031206386       -1.4162223579
  H         0.0075758488       -0.6039557193        1.4191803423
