      10
 i =      107, E =       -26.4148768308
  C        -0.5590272088        1.5840594064       -0.0936654180
  C        -0.5626063724       -1.4876883487        0.0976090665
  C         0.4676748778        0.7471720985       -0.1902688807
  C         0.4689676131       -0.6552352756        0.1782053528
  H        -1.5073859396        1.2747149130        0.3115862850
  H        -0.4725652479        2.6096005659       -0.4043011274
  H        -1.5169098331       -1.1705457163       -0.2874674739
  H        -0.4755670283       -2.5145914734        0.4033098146
  H         1.4096308224        1.1323673224       -0.5535291955
  H         1.4178010016       -1.0476867148        0.5136457967
