      10
 i =       10, E =       -26.3994822666
  C        -0.7499365007        0.7748289840        0.0001398393
  C        -0.7490262679       -0.7759577631       -0.0000304136
  C         0.7458991497        0.6653366801       -0.0001234306
  C         0.7465457585       -0.6648495357        0.0000927041
  H        -1.1920988739        1.2306711161        0.8804592712
  H        -1.1929850019        1.2311525108       -0.8794922339
  H        -1.1906082996       -1.2324228296       -0.8804219048
  H        -1.1911825568       -1.2328513923        0.8798616803
  H         1.5235838849        1.4098437981       -0.0003138068
  H         1.5251599343       -1.4084564222        0.0002786580
